1000
400 400
1 280 993
2 280 441
3 280 695
4 280 937
5 280 779
6 279 781
7 279 915
8 279 464
9 279 844
10 279 265
11 278 432
12 278 336
13 278 317
14 277 665
15 277 577
16 277 329
17 277 452
18 277 126
19 276 700
20 276 784
21 276 125
22 276 431
23 276 148
24 276 110
25 276 989
26 275 763
27 275 490
28 275 169
29 274 987
30 274 143
31 274 503
32 274 83
33 274 703
34 274 958
35 274 437
36 274 599
37 274 325
38 274 604
39 274 288
40 274 892
41 274 125
42 273 530
43 272 481
44 272 437
45 271 726
46 271 854
47 271 928
48 271 49
49 271 13
50 271 365
51 271 786
52 270 713
53 270 108
54 270 614
55 269 766
56 269 513
57 268 515
58 268 112
59 268 896
60 268 397
61 267 781
62 267 299
63 267 978
64 267 79
65 267 720
66 267 599
67 266 935
68 266 308
69 266 389
70 266 222
71 265 621
72 265 937
73 265 478
74 265 610
75 265 320
76 265 824
77 265 871
78 265 135
79 265 962
80 265 851
81 264 600
82 264 367
83 264 409
84 264 364
85 263 68
86 263 495
87 263 956
88 263 617
89 262 995
90 262 333
91 262 31
92 262 3
93 262 648
94 262 415
95 262 87
96 262 30
97 261 634
98 261 467
99 261 137
100 261 984
101 261 893
102 261 590
103 261 655
104 261 23
105 260 294
106 260 284
107 260 468
108 260 236
109 260 884
110 260 289
111 260 360
112 259 35
113 259 446
114 259 455
115 259 450
116 259 619
117 259 377
118 257 472
119 257 896
120 257 375
121 256 903
122 256 618
123 255 143
124 255 159
125 254 381
126 254 67
127 253 384
128 253 393
129 253 459
130 252 185
131 252 926
132 252 176
133 252 448
134 252 791
135 251 129
136 251 123
137 250 661
138 250 38
139 250 385
140 250 973
141 249 373
142 249 642
143 249 346
144 248 61
145 248 339
146 247 359
147 247 957
148 247 526
149 247 655
150 246 639
151 246 191
152 246 587
153 246 369
154 246 908
155 246 451
156 246 677
157 245 991
158 244 187
159 244 437
160 244 862
161 244 190
162 244 706
163 244 695
164 243 324
165 243 663
166 243 265
167 243 277
168 243 1
169 243 832
170 243 544
171 242 950
172 242 781
173 241 248
174 241 592
175 241 794
176 240 178
177 240 792
178 240 590
179 240 305
180 239 848
181 239 888
182 239 370
183 238 639
184 238 825
185 237 2
186 237 226
187 237 6
188 237 310
189 237 714
190 237 937
191 236 170
192 236 445
193 236 71
194 236 284
195 235 126
196 235 715
197 234 614
198 234 532
199 234 185
200 234 927
201 233 188
202 233 507
203 233 211
204 233 98
205 232 650
206 232 628
207 232 736
208 232 194
209 232 477
210 232 292
211 232 404
212 231 535
213 231 624
214 231 578
215 230 415
216 230 306
217 230 876
218 230 911
219 230 983
220 230 63
221 229 127
222 229 733
223 229 293
224 229 379
225 229 140
226 228 575
227 228 607
228 228 692
229 228 252
230 227 878
231 227 678
232 227 45
233 227 641
234 227 857
235 227 285
236 226 121
237 226 326
238 226 389
239 226 844
240 226 840
241 225 337
242 225 137
243 225 398
244 225 579
245 225 912
246 225 39
247 225 96
248 224 975
249 224 747
250 224 396
251 223 835
252 222 956
253 222 654
254 222 660
255 222 290
256 221 524
257 221 517
258 221 108
259 221 348
260 221 48
261 221 128
262 220 461
263 220 648
264 220 934
265 220 883
266 220 936
267 220 240
268 220 7
269 220 261
270 219 340
271 219 507
272 218 925
273 218 303
274 218 111
275 218 456
276 218 293
277 217 761
278 217 459
279 217 936
280 217 999
281 216 522
282 216 256
283 216 247
284 216 125
285 215 301
286 215 6
287 215 790
288 214 605
289 214 826
290 214 502
291 214 287
292 214 893
293 213 152
294 213 233
295 213 881
296 212 525
297 212 337
298 212 465
299 212 13
300 212 787
301 211 923
302 211 981
303 211 940
304 210 973
305 210 868
306 210 7
307 209 991
308 208 428
309 208 528
310 208 244
311 207 766
312 207 175
313 207 537
314 207 346
315 206 522
316 206 922
317 206 951
318 205 132
319 205 209
320 205 402
321 205 377
322 205 246
323 205 165
324 205 754
325 205 388
326 204 515
327 204 722
328 204 59
329 203 315
330 203 544
331 203 572
332 202 629
333 202 853
334 202 825
335 202 419
336 201 859
337 200 790
338 200 465
339 200 809
340 199 81
341 199 785
342 199 301
343 199 655
344 199 37
345 199 774
346 199 379
347 199 608
348 198 372
349 198 517
350 198 486
351 197 734
352 197 55
353 197 553
354 197 326
355 197 741
356 196 21
357 196 924
358 196 363
359 195 437
360 195 301
361 195 946
362 195 13
363 195 577
364 194 355
365 194 37
366 194 924
367 194 286
368 194 169
369 193 489
370 193 137
371 193 394
372 192 509
373 192 71
374 192 319
375 192 657
376 192 43
377 192 364
378 192 107
379 192 324
380 192 732
381 191 485
382 191 528
383 191 60
384 191 64
385 190 203
386 190 302
387 189 998
388 189 498
389 189 805
390 189 873
391 188 995
392 188 974
393 188 221
394 188 916
395 188 424
396 188 431
397 188 44
398 188 785
399 187 137
400 187 560
401 187 693
402 187 432
403 187 883
404 186 325
405 186 68
406 186 81
407 185 970
408 185 874
409 185 997
410 185 659
411 185 338
412 185 946
413 184 27
414 183 448
415 183 943
416 182 568
417 182 466
418 182 766
419 181 98
420 181 327
421 180 284
422 180 778
423 180 239
424 179 492
425 179 709
426 179 749
427 178 878
428 178 165
429 178 223
430 178 506
431 177 66
432 177 688
433 177 273
434 177 579
435 177 838
436 177 292
437 177 644
438 177 503
439 177 592
440 177 881
441 177 978
442 176 427
443 176 351
444 176 759
445 176 239
446 175 385
447 175 452
448 175 504
449 175 955
450 175 473
451 175 456
452 174 901
453 174 99
454 174 745
455 174 564
456 174 987
457 174 682
458 174 847
459 174 123
460 174 662
461 173 937
462 172 812
463 172 682
464 172 339
465 172 3
466 172 612
467 172 374
468 172 537
469 171 975
470 171 386
471 171 611
472 171 645
473 170 433
474 170 656
475 170 59
476 169 781
477 168 610
478 168 815
479 168 363
480 168 587
481 168 276
482 168 1000
483 167 460
484 167 735
485 167 609
486 166 654
487 166 179
488 166 253
489 165 815
490 165 508
491 164 850
492 164 839
493 164 959
494 164 331
495 163 784
496 163 204
497 163 254
498 163 437
499 163 40
500 162 238
501 162 113
502 162 841
503 162 169
504 162 762
505 161 457
506 161 431
507 161 604
508 160 485
509 160 823
510 159 94
511 159 585
512 159 912
513 159 137
514 158 101
515 158 393
516 158 609
517 158 657
518 158 311
519 158 493
520 157 117
521 157 393
522 157 933
523 156 99
524 156 30
525 156 740
526 155 529
527 155 658
528 155 98
529 155 921
530 154 976
531 154 953
532 154 995
533 154 999
534 154 809
535 153 418
536 153 710
537 153 315
538 152 827
539 152 72
540 152 858
541 151 554
542 151 524
543 151 536
544 151 741
545 151 174
546 151 611
547 151 269
548 151 621
549 149 67
550 149 96
551 148 188
552 148 942
553 148 606
554 147 694
555 147 273
556 147 876
557 147 85
558 147 488
559 147 433
560 147 399
561 146 359
562 146 890
563 146 681
564 146 402
565 146 284
566 146 478
567 146 701
568 146 670
569 145 36
570 145 723
571 144 572
572 144 218
573 144 750
574 143 620
575 143 803
576 143 627
577 142 71
578 141 181
579 141 860
580 141 998
581 140 823
582 140 757
583 140 512
584 140 212
585 139 176
586 139 295
587 139 40
588 138 724
589 138 958
590 137 926
591 137 310
592 137 28
593 137 58
594 137 817
595 137 516
596 136 368
597 136 987
598 135 882
599 135 944
600 134 443
601 134 252
602 134 45
603 134 686
604 133 260
605 133 996
606 133 816
607 133 963
608 133 16
609 133 563
610 133 613
611 132 261
612 132 955
613 132 962
614 132 613
615 132 625
616 131 912
617 131 357
618 130 916
619 130 653
620 129 306
621 129 284
622 129 249
623 129 509
624 129 61
625 128 396
626 128 753
627 127 586
628 127 120
629 127 88
630 127 125
631 126 786
632 126 920
633 126 256
634 126 21
635 126 449
636 125 491
637 125 840
638 125 39
639 125 910
640 124 254
641 124 905
642 124 406
643 124 675
644 124 892
645 124 989
646 124 365
647 124 973
648 124 55
649 123 135
650 123 625
651 123 206
652 122 225
653 122 245
654 122 973
655 122 622
656 122 838
657 121 695
658 121 846
659 120 719
660 120 3
661 120 894
662 120 677
663 120 644
664 120 452
665 119 835
666 119 240
667 118 668
668 118 257
669 118 937
670 118 970
671 117 361
672 117 289
673 117 616
674 117 414
675 117 180
676 116 425
677 116 501
678 116 97
679 116 987
680 116 569
681 115 503
682 115 870
683 115 140
684 114 561
685 114 518
686 114 452
687 114 176
688 114 432
689 114 738
690 113 928
691 113 309
692 113 606
693 113 375
694 113 850
695 112 19
696 112 158
697 112 656
698 111 724
699 111 667
700 111 328
701 111 599
702 111 467
703 111 236
704 110 738
705 110 401
706 110 956
707 109 770
708 109 948
709 109 454
710 109 186
711 108 654
712 108 852
713 108 433
714 108 476
715 108 287
716 107 943
717 107 616
718 107 367
719 107 75
720 106 137
721 106 903
722 105 234
723 105 861
724 105 721
725 105 956
726 105 928
727 105 193
728 105 667
729 104 711
730 104 708
731 104 44
732 103 429
733 103 806
734 102 106
735 102 41
736 102 103
737 102 935
738 101 162
739 101 106
740 101 454
741 101 460
742 101 665
743 101 636
744 100 186
745 100 717
746 99 920
747 99 87
748 98 110
749 98 257
750 98 4
751 98 880
752 97 985
753 97 843
754 96 190
755 96 900
756 96 884
757 95 632
758 95 609
759 95 922
760 95 830
761 94 161
762 94 798
763 94 100
764 93 592
765 93 543
766 93 929
767 92 303
768 92 50
769 91 528
770 91 386
771 90 789
772 90 654
773 89 128
774 89 684
775 89 496
776 89 84
777 88 450
778 88 905
779 88 697
780 88 171
781 88 727
782 87 374
783 87 706
784 87 331
785 87 152
786 87 543
787 87 281
788 87 428
789 87 558
790 87 338
791 86 335
792 86 353
793 86 875
794 86 333
795 86 343
796 85 30
797 85 525
798 85 362
799 84 22
800 84 970
801 84 322
802 84 802
803 84 962
804 82 809
805 82 98
806 82 433
807 82 762
808 81 673
809 81 154
810 81 569
811 80 530
812 80 32
813 80 244
814 80 474
815 80 761
816 80 302
817 80 117
818 80 737
819 79 565
820 79 186
821 78 882
822 78 889
823 78 802
824 78 17
825 78 690
826 78 332
827 77 227
828 77 651
829 77 506
830 77 202
831 77 841
832 77 337
833 76 15
834 76 262
835 76 24
836 76 474
837 76 495
838 76 698
839 76 847
840 75 336
841 75 121
842 75 994
843 75 922
844 74 737
845 74 646
846 74 109
847 73 233
848 73 186
849 73 387
850 73 212
851 73 559
852 73 232
853 72 599
854 72 125
855 72 412
856 72 224
857 71 868
858 71 755
859 71 373
860 70 2
861 70 605
862 70 376
863 69 198
864 69 260
865 69 795
866 69 450
867 68 95
868 68 355
869 68 368
870 68 409
871 67 903
872 67 79
873 67 169
874 67 226
875 66 380
876 66 380
877 66 260
878 66 845
879 66 819
880 65 133
881 65 975
882 65 655
883 65 372
884 65 565
885 65 582
886 65 654
887 65 547
888 64 741
889 64 852
890 64 507
891 64 199
892 64 9
893 64 179
894 64 693
895 64 130
896 63 490
897 63 339
898 63 999
899 62 842
900 62 762
901 61 60
902 61 568
903 61 408
904 60 134
905 60 967
906 59 358
907 59 346
908 59 211
909 59 669
910 59 148
911 59 597
912 58 465
913 57 226
914 57 334
915 57 755
916 57 661
917 56 213
918 56 182
919 56 192
920 56 234
921 56 248
922 55 354
923 55 788
924 55 64
925 55 576
926 55 642
927 55 487
928 54 564
929 54 878
930 54 950
931 54 49
932 54 548
933 54 618
934 54 879
935 54 292
936 53 84
937 53 764
938 53 997
939 52 115
940 52 560
941 52 760
942 52 732
943 51 681
944 51 371
945 51 755
946 51 61
947 51 374
948 51 801
949 51 932
950 51 62
951 50 176
952 50 801
953 50 617
954 50 49
955 50 403
956 50 97
957 50 26
958 50 169
959 49 336
960 49 58
961 49 687
962 49 867
963 49 14
964 48 337
965 48 46
966 48 461
967 48 965
968 48 826
969 47 963
970 47 962
971 46 586
972 46 47
973 46 210
974 46 317
975 46 524
976 45 426
977 45 32
978 45 868
979 44 357
980 44 678
981 44 724
982 43 843
983 43 322
984 43 164
985 43 991
986 42 183
987 42 463
988 42 980
989 42 298
990 41 398
991 41 373
992 41 784
993 41 265
994 41 295
995 41 223
996 40 181
997 40 513
998 40 479
999 40 296
1000 40 277
